<number of tasks>
250

<cycle time>
1000

<order strength>
0.895


<task times>
1 157
2 109
3 121
4 34
5 149
6 230
7 182
8 301
9 81
10 81
11 23
12 89
13 31
14 116
15 117
16 133
17 119
18 112
19 53
20 188
21 126
22 172
23 24
24 191
25 238
26 22
27 76
28 232
29 237
30 235
31 36
32 288
33 192
34 299
35 51
36 60
37 31
38 135
39 175
40 45
41 121
42 58
43 191
44 137
45 37
46 204
47 135
48 188
49 213
50 147
51 22
52 63
53 57
54 239
55 198
56 229
57 372
58 112
59 216
60 57
61 139
62 110
63 39
64 139
65 104
66 148
67 49
68 209
69 30
70 353
71 219
72 27
73 52
74 114
75 53
76 37
77 34
78 210
79 300
80 163
81 181
82 327
83 215
84 196
85 178
86 148
87 294
88 130
89 58
90 119
91 212
92 80
93 128
94 107
95 93
96 141
97 103
98 142
99 305
100 158
101 239
102 207
103 148
104 220
105 143
106 130
107 99
108 190
109 186
110 78
111 189
112 94
113 179
114 221
115 136
116 232
117 123
118 148
119 139
120 34
121 176
122 248
123 54
124 140
125 176
126 121
127 78
128 38
129 448
130 62
131 258
132 71
133 156
134 317
135 203
136 132
137 106
138 113
139 54
140 153
141 208
142 55
143 32
144 83
145 208
146 57
147 57
148 247
149 139
150 155
151 120
152 333
153 246
154 45
155 272
156 54
157 128
158 114
159 115
160 172
161 335
162 146
163 265
164 173
165 31
166 108
167 126
168 25
169 135
170 75
171 201
172 80
173 38
174 87
175 105
176 42
177 56
178 167
179 63
180 90
181 333
182 48
183 53
184 191
185 35
186 83
187 118
188 51
189 113
190 92
191 216
192 121
193 293
194 33
195 45
196 91
197 220
198 127
199 89
200 33
201 20
202 46
203 238
204 138
205 165
206 53
207 73
208 327
209 90
210 35
211 111
212 33
213 116
214 105
215 41
216 159
217 216
218 136
219 63
220 110
221 150
222 125
223 168
224 110
225 25
226 100
227 141
228 73
229 87
230 164
231 213
232 177
233 39
234 120
235 248
236 222
237 56
238 156
239 34
240 77
241 39
242 98
243 219
244 168
245 181
246 227
247 86
248 188
249 62
250 29

<precedence relations>
1,5
1,6
2,5
2,6
3,5
3,6
4,5
4,6
5,7
5,8
5,9
5,10
5,11
5,12
6,7
6,8
6,9
6,12
7,13
7,14
7,15
7,16
7,17
8,13
8,14
8,15
8,16
8,17
9,13
9,14
9,15
9,16
9,17
10,13
10,14
10,15
10,16
10,17
11,13
11,14
11,15
11,16
11,17
12,13
12,14
12,15
12,16
12,17
13,18
13,19
14,18
14,19
15,18
15,19
16,18
16,19
17,18
17,19
18,20
18,21
18,22
19,20
19,21
19,22
20,23
20,24
20,25
20,26
20,27
21,23
21,24
21,25
21,26
21,27
22,23
22,24
22,25
22,26
23,138
24,30
24,33
24,34
24,35
25,28
25,29
25,30
25,31
25,34
25,35
26,28
26,29
26,30
26,32
26,33
27,28
27,29
27,31
28,58
28,65
29,36
29,37
29,38
29,39
30,36
31,36
32,51
32,70
33,36
33,37
33,38
33,39
34,36
34,37
34,38
34,39
35,36
35,37
35,38
35,39
36,40
36,41
36,42
36,43
36,44
37,40
37,41
38,40
38,44
38,53
38,59
39,40
39,41
39,42
40,45
40,52
41,45
41,46
41,47
41,48
42,45
42,46
42,47
42,48
43,48
44,57
44,69
44,70
45,49
45,54
46,49
46,50
46,55
47,49
47,50
47,51
47,52
47,53
47,55
48,49
48,50
48,51
48,55
49,57
49,69
49,70
50,56
50,57
50,58
50,59
51,59
52,56
52,64
53,67
53,74
54,56
54,58
55,56
56,60
56,61
56,62
56,63
56,65
57,62
58,61
58,63
59,64
60,74
61,66
61,67
61,68
61,69
61,70
62,66
63,67
64,66
65,69
66,71
66,72
66,73
66,74
67,71
68,71
68,72
68,73
68,74
69,71
69,72
70,71
70,73
70,74
71,75
71,76
72,75
72,76
73,75
73,76
74,75
74,76
75,77
75,78
75,79
75,80
75,81
75,82
76,77
76,78
76,79
76,80
76,81
76,82
77,83
77,84
77,85
77,86
77,87
77,88
78,83
78,84
78,85
78,86
78,87
79,84
80,86
80,88
80,89
80,101
81,85
82,118
82,132
82,150
83,90
83,92
83,100
84,89
85,89
85,90
85,91
86,106
87,89
87,101
88,131
89,93
89,94
89,96
90,93
90,97
91,95
91,101
92,93
93,98
93,99
94,98
94,99
94,100
95,98
96,98
97,101
97,116
98,102
98,103
98,104
99,102
99,103
99,104
100,102
100,103
101,102
101,103
102,105
102,109
102,110
103,108
104,105
104,106
104,107
104,108
104,109
104,110
105,111
105,113
105,115
106,111
106,112
106,114
106,115
107,116
107,133
108,114
108,115
109,111
109,112
109,113
109,114
110,111
110,112
110,113
110,114
110,115
111,120
112,117
112,119
112,121
112,123
113,122
114,117
114,118
114,119
114,120
114,121
114,122
114,123
115,117
115,118
116,147
117,124
118,133
118,142
119,124
119,125
119,126
120,124
120,125
120,126
121,124
121,125
121,126
122,124
122,125
122,126
123,125
123,126
124,129
125,127
125,128
125,129
125,130
126,130
126,131
126,136
127,134
127,135
128,136
128,144
129,132
129,133
129,134
129,136
130,132
130,133
130,134
131,132
131,133
131,141
132,137
132,138
132,139
132,140
133,137
133,148
134,138
134,141
134,142
135,140
135,166
136,137
136,141
137,143
138,144
138,145
139,143
140,153
141,146
141,161
142,143
143,149
143,151
144,147
144,148
144,152
145,179
145,189
145,190
146,147
146,148
146,150
147,153
147,154
147,162
147,163
148,153
148,171
149,153
149,154
149,155
150,153
150,164
151,239
151,241
151,247
152,155
152,158
153,156
154,226
155,157
156,158
156,168
156,175
157,159
157,160
158,167
159,161
160,161
160,162
160,163
161,164
161,165
161,166
162,164
162,165
162,166
163,164
163,165
164,182
164,195
164,197
164,200
165,168
165,170
166,167
166,169
166,171
167,172
167,176
168,174
168,187
169,172
169,173
169,174
169,185
170,172
170,173
170,174
170,175
171,185
171,189
171,190
172,177
172,211
172,223
173,180
173,181
174,197
174,218
175,220
176,177
176,178
176,179
177,206
178,182
178,183
178,202
179,185
181,184
181,187
181,188
181,189
181,191
182,186
182,188
182,189
182,201
183,188
183,203
184,190
185,186
185,187
185,191
187,192
188,196
188,208
188,209
189,204
190,192
191,192
192,193
192,194
192,195
192,196
192,197
192,198
193,199
194,202
194,212
194,217
194,219
195,199
195,203
196,235
197,220
197,235
198,199
198,200
198,201
198,219
198,224
199,204
200,209
200,235
200,239
201,205
201,207
201,209
203,206
203,208
203,209
204,218
204,242
205,222
206,212
206,232
208,210
208,211
208,212
209,236
209,250
210,214
210,236
211,213
212,215
212,216
213,217
213,220
214,219
215,243
216,218
216,231
217,222
217,224
218,221
218,240
219,223
220,249
222,225
222,227
222,233
223,228
223,245
224,226
224,229
226,230
229,231
230,232
230,234
231,233
232,236
232,249
233,235
233,237
233,239
233,240
234,235
234,238
235,245
236,242
236,247
237,241
237,243
237,246
240,244
241,248
243,250
244,249

<end>
